4 5 1.7
3 1 1 147 2 4 140 2 130 2 4 150 5 160
3 2 1 214 3 150 2 3 87 2 66 1 5 178
3 2 1 87 2 62 1 3 180 2 4 190 5 100
3 2 1 87 2 65 1 5 173 2 4 145 3 136

   0  0  96  90  
111  0  38  25  
42  130  0  120  
35  70  109  0  
0  69  110  4  
48  0  59  46  
83  93  0  81  
72  33  69  0  
0  132  124  132  
125  0  4  66  
62  110  0  110  
120  125  116  0  
0  44  26  30  
121  0  66  124  
102  100  0  32  
45  92  119  0  
0  88  98  100  
89  0  18  57  
95  73  0  67  
70  102  102  0  
